jobs  (incl. supersource/sink ):	102
RESOURCES
- renewable                 : 2 R
- nonrenewable              : 2 N
- doubly constrained        : 0 D
************************************************************************
PRECEDENCE RELATIONS:
jobnr.    #modes  #successors   successors
1	1	26		2 3 4 5 6 7 8 9 10 11 12 13 14 15 17 18 22 23 24 25 27 28 34 35 37 51 
2	3	15		101 98 83 59 57 53 52 50 48 44 43 38 31 30 20 
3	3	12		99 68 62 61 56 52 49 40 39 33 31 26 
4	3	22		101 99 84 82 81 79 69 68 67 64 60 59 55 54 50 49 48 46 40 38 36 29 
5	3	10		68 67 66 61 60 59 55 41 31 16 
6	3	10		99 97 95 80 55 54 47 33 29 16 
7	3	18		101 96 94 82 66 65 62 59 57 56 54 52 50 49 47 43 39 21 
8	3	14		100 97 84 81 66 65 63 53 50 47 43 39 33 19 
9	3	21		101 100 98 97 95 93 92 91 84 82 68 65 63 59 58 57 54 45 44 42 41 
10	3	18		100 98 97 96 95 92 83 68 67 63 61 60 59 54 45 44 43 40 
11	3	11		101 99 85 83 80 65 58 43 38 33 30 
12	3	24		100 98 97 96 95 94 93 92 91 90 89 88 85 84 83 82 81 80 75 64 61 53 52 40 
13	3	13		101 99 97 95 94 91 84 63 60 50 47 38 33 
14	3	23		100 99 98 96 95 94 92 90 88 85 84 83 82 80 76 67 65 63 60 58 55 53 44 
15	3	11		99 98 93 89 87 82 81 59 48 32 31 
16	3	14		101 98 94 93 92 83 82 79 65 57 53 44 43 39 
17	3	17		99 98 96 95 88 83 81 77 71 66 64 61 60 59 57 52 50 
18	3	14		96 95 94 92 91 86 75 67 66 65 60 53 52 39 
19	3	18		99 98 95 94 88 85 83 82 80 78 76 74 71 64 60 59 58 57 
20	3	17		99 94 93 89 88 86 85 84 82 81 76 75 74 67 65 58 41 
21	3	20		99 98 97 92 91 90 88 87 85 83 79 78 76 75 74 71 64 63 61 58 
22	3	17		99 98 95 93 91 90 88 85 84 80 77 74 73 68 66 63 47 
23	3	11		95 94 93 86 83 68 67 65 63 50 43 
24	3	15		99 95 93 90 89 87 85 83 82 79 67 66 63 58 48 
25	3	15		100 99 97 92 90 86 84 83 78 76 64 63 60 58 48 
26	3	13		98 97 94 91 88 86 83 81 77 67 63 54 47 
27	3	12		97 95 91 85 84 81 73 68 64 63 59 40 
28	3	17		100 99 96 94 92 88 85 84 83 78 77 76 74 73 64 59 55 
29	3	17		98 96 93 91 89 87 86 85 78 75 74 73 72 71 66 63 58 
30	3	16		97 95 94 91 90 88 86 77 75 74 73 72 70 68 67 60 
31	3	17		100 97 96 95 94 92 91 90 86 85 84 80 76 75 73 72 70 
32	3	12		97 92 88 86 84 80 73 71 67 66 65 63 
33	3	12		98 96 89 88 86 82 79 77 73 71 67 59 
34	3	14		97 96 90 86 84 82 81 76 75 74 73 72 71 70 
35	3	11		97 91 90 89 86 85 84 77 75 65 64 
36	3	10		97 94 89 85 76 75 73 72 71 63 
37	3	10		90 89 85 77 76 75 74 73 72 70 
38	3	9		92 90 88 87 77 75 74 70 66 
39	3	8		90 89 88 85 76 74 71 58 
40	3	6		78 74 71 66 65 58 
41	3	8		96 90 87 80 78 73 71 70 
42	3	8		99 90 89 87 79 76 74 71 
43	3	7		91 89 88 75 74 73 64 
44	3	7		87 86 81 78 73 71 70 
45	3	7		94 90 87 85 81 76 71 
46	3	7		100 96 95 88 76 73 70 
47	3	6		92 87 75 71 70 64 
48	3	6		88 77 74 73 72 71 
49	3	6		95 93 91 77 75 70 
50	3	5		92 87 85 78 73 
51	3	5		99 94 86 83 72 
52	3	4		87 74 73 63 
53	3	4		74 72 71 70 
54	3	4		85 78 76 74 
55	3	4		91 75 71 70 
56	3	4		91 72 71 70 
57	3	3		87 86 73 
58	3	2		77 70 
59	3	2		75 70 
60	3	2		93 89 
61	3	2		86 73 
62	3	2		84 70 
63	3	1		70 
64	3	1		72 
65	3	1		72 
66	3	1		76 
67	3	1		78 
68	3	1		71 
69	3	1		75 
70	3	1		102 
71	3	1		102 
72	3	1		102 
73	3	1		102 
74	3	1		102 
75	3	1		102 
76	3	1		102 
77	3	1		102 
78	3	1		102 
79	3	1		102 
80	3	1		102 
81	3	1		102 
82	3	1		102 
83	3	1		102 
84	3	1		102 
85	3	1		102 
86	3	1		102 
87	3	1		102 
88	3	1		102 
89	3	1		102 
90	3	1		102 
91	3	1		102 
92	3	1		102 
93	3	1		102 
94	3	1		102 
95	3	1		102 
96	3	1		102 
97	3	1		102 
98	3	1		102 
99	3	1		102 
100	3	1		102 
101	3	1		102 
102	1	0		
************************************************************************
REQUESTS/DURATIONS
jobnr.	mode	dur	R1	R2	N1	N2	
------------------------------------------------------------------------
1	1	0	0	0	0	0	
2	1	1	3	3	6	0	
	2	6	3	2	5	0	
	3	9	2	1	4	0	
3	1	4	4	4	9	0	
	2	7	3	3	7	0	
	3	9	2	2	0	2	
4	1	3	2	4	6	0	
	2	4	1	3	0	3	
	3	8	1	3	2	0	
5	1	2	5	3	10	0	
	2	6	3	3	7	0	
	3	10	1	3	0	2	
6	1	1	1	3	7	0	
	2	4	1	2	5	0	
	3	5	1	1	5	0	
7	1	8	1	5	0	5	
	2	9	1	4	0	4	
	3	9	1	4	2	0	
8	1	1	4	4	7	0	
	2	3	2	4	6	0	
	3	10	1	4	3	0	
9	1	6	1	2	0	9	
	2	7	1	2	7	0	
	3	7	1	2	0	3	
10	1	2	1	2	9	0	
	2	3	1	2	6	0	
	3	5	1	1	4	0	
11	1	1	5	3	6	0	
	2	7	5	2	5	0	
	3	7	5	1	0	7	
12	1	7	4	4	3	0	
	2	8	2	2	2	0	
	3	9	1	1	2	0	
13	1	6	3	3	9	0	
	2	8	3	3	0	4	
	3	9	3	3	0	3	
14	1	2	3	4	3	0	
	2	7	3	3	3	0	
	3	10	3	3	2	0	
15	1	3	2	3	6	0	
	2	4	1	3	5	0	
	3	9	1	2	5	0	
16	1	3	1	2	0	4	
	2	4	1	1	0	4	
	3	6	1	1	0	3	
17	1	1	5	4	0	10	
	2	6	3	4	0	10	
	3	7	3	4	0	9	
18	1	5	3	3	9	0	
	2	5	3	2	0	5	
	3	8	3	2	0	1	
19	1	3	5	4	6	0	
	2	8	3	3	5	0	
	3	9	2	3	0	4	
20	1	3	4	4	0	7	
	2	4	4	3	8	0	
	3	10	4	2	0	1	
21	1	4	5	5	0	8	
	2	4	3	4	2	0	
	3	7	3	3	0	6	
22	1	2	3	4	3	0	
	2	3	2	3	3	0	
	3	5	1	3	3	0	
23	1	3	2	3	0	6	
	2	5	2	3	4	0	
	3	10	2	3	0	3	
24	1	2	4	4	5	0	
	2	3	3	2	5	0	
	3	4	3	2	4	0	
25	1	4	4	3	9	0	
	2	5	3	2	6	0	
	3	8	2	2	4	0	
26	1	7	3	4	0	1	
	2	7	2	2	9	0	
	3	8	2	2	8	0	
27	1	3	5	5	0	3	
	2	4	4	3	4	0	
	3	8	4	3	0	2	
28	1	7	5	3	8	0	
	2	8	5	2	0	6	
	3	9	5	1	2	0	
29	1	1	1	5	7	0	
	2	7	1	4	6	0	
	3	8	1	4	4	0	
30	1	4	5	2	0	3	
	2	6	3	2	0	2	
	3	9	1	2	0	1	
31	1	1	4	1	6	0	
	2	3	3	1	2	0	
	3	7	3	1	0	6	
32	1	1	3	3	8	0	
	2	7	2	2	0	5	
	3	9	2	2	0	3	
33	1	2	2	3	0	8	
	2	4	2	3	0	6	
	3	7	2	3	0	3	
34	1	4	1	2	0	4	
	2	7	1	1	6	0	
	3	9	1	1	0	2	
35	1	3	2	2	10	0	
	2	5	2	2	9	0	
	3	6	2	2	8	0	
36	1	3	3	1	0	7	
	2	8	3	1	0	6	
	3	9	3	1	0	5	
37	1	3	4	4	0	5	
	2	3	4	3	7	0	
	3	6	4	2	3	0	
38	1	8	4	2	3	0	
	2	8	3	2	0	4	
	3	9	1	2	1	0	
39	1	3	4	4	0	2	
	2	9	2	4	0	2	
	3	10	2	4	0	1	
40	1	1	2	4	0	9	
	2	2	1	4	0	4	
	3	10	1	4	3	0	
41	1	8	5	2	7	0	
	2	9	3	2	3	0	
	3	10	1	2	2	0	
42	1	1	4	4	0	5	
	2	4	3	3	5	0	
	3	10	2	3	0	2	
43	1	1	1	4	0	8	
	2	4	1	4	0	7	
	3	7	1	4	0	6	
44	1	4	5	4	9	0	
	2	6	3	3	0	3	
	3	8	1	2	0	2	
45	1	2	4	2	0	8	
	2	5	4	2	0	7	
	3	6	3	2	0	4	
46	1	3	3	3	0	4	
	2	7	2	3	0	2	
	3	8	2	2	0	2	
47	1	4	2	5	0	8	
	2	5	2	4	4	0	
	3	10	2	4	3	0	
48	1	4	4	5	0	4	
	2	5	3	3	0	4	
	3	9	1	3	0	4	
49	1	3	4	5	2	0	
	2	6	4	5	0	6	
	3	8	4	5	1	0	
50	1	6	2	2	0	8	
	2	9	2	2	6	0	
	3	10	2	2	0	5	
51	1	4	2	4	3	0	
	2	7	2	3	2	0	
	3	9	2	3	0	3	
52	1	5	3	3	0	2	
	2	9	2	2	0	2	
	3	10	2	2	0	1	
53	1	1	5	4	10	0	
	2	3	4	4	0	2	
	3	4	4	2	0	1	
54	1	7	3	5	10	0	
	2	8	3	4	9	0	
	3	9	3	4	0	3	
55	1	2	1	3	0	5	
	2	6	1	2	0	3	
	3	9	1	2	0	2	
56	1	3	4	5	0	3	
	2	6	4	3	0	2	
	3	9	2	3	3	0	
57	1	2	1	4	0	7	
	2	5	1	3	0	5	
	3	8	1	3	1	0	
58	1	2	4	4	0	8	
	2	6	4	4	3	0	
	3	10	4	3	0	8	
59	1	4	4	3	5	0	
	2	6	4	2	5	0	
	3	10	4	1	0	2	
60	1	7	4	5	7	0	
	2	9	4	5	5	0	
	3	10	4	5	4	0	
61	1	2	4	5	0	5	
	2	8	4	4	3	0	
	3	9	4	4	0	3	
62	1	2	5	3	8	0	
	2	5	2	3	5	0	
	3	10	2	3	4	0	
63	1	2	3	2	7	0	
	2	8	3	2	0	2	
	3	9	3	2	0	1	
64	1	1	4	4	0	8	
	2	5	3	3	0	5	
	3	8	3	3	0	4	
65	1	4	1	5	10	0	
	2	5	1	5	0	4	
	3	8	1	5	8	0	
66	1	7	4	3	0	8	
	2	8	3	2	0	5	
	3	10	2	1	0	4	
67	1	2	3	5	6	0	
	2	5	2	3	5	0	
	3	6	2	2	0	8	
68	1	1	2	5	7	0	
	2	2	2	4	4	0	
	3	7	2	4	2	0	
69	1	1	4	4	0	8	
	2	6	2	3	0	4	
	3	9	2	3	8	0	
70	1	6	5	2	0	7	
	2	7	4	2	4	0	
	3	9	3	2	4	0	
71	1	5	2	4	0	7	
	2	6	1	3	0	6	
	3	9	1	3	0	5	
72	1	2	3	2	0	4	
	2	6	3	1	0	3	
	3	8	3	1	2	0	
73	1	5	5	4	0	4	
	2	7	5	4	3	0	
	3	10	5	4	2	0	
74	1	1	2	4	0	6	
	2	3	2	4	2	0	
	3	9	2	4	1	0	
75	1	5	2	2	0	4	
	2	6	2	1	7	0	
	3	8	1	1	0	2	
76	1	3	5	2	10	0	
	2	4	4	2	5	0	
	3	4	4	2	0	7	
77	1	4	3	4	10	0	
	2	6	3	4	6	0	
	3	8	3	4	2	0	
78	1	1	3	4	9	0	
	2	4	3	3	0	3	
	3	7	3	2	0	1	
79	1	8	2	2	8	0	
	2	9	2	1	8	0	
	3	10	1	1	0	4	
80	1	1	2	3	0	8	
	2	4	1	2	0	6	
	3	9	1	2	0	2	
81	1	2	2	5	6	0	
	2	7	2	3	4	0	
	3	8	2	3	0	3	
82	1	3	1	5	0	4	
	2	8	1	4	4	0	
	3	9	1	3	0	1	
83	1	5	3	4	8	0	
	2	5	3	3	0	7	
	3	10	2	3	5	0	
84	1	1	1	5	0	9	
	2	2	1	4	0	5	
	3	3	1	4	0	4	
85	1	3	5	1	0	8	
	2	4	4	1	3	0	
	3	8	3	1	0	7	
86	1	2	5	2	7	0	
	2	4	4	1	0	3	
	3	8	3	1	0	2	
87	1	3	4	3	6	0	
	2	6	3	2	5	0	
	3	8	3	1	0	2	
88	1	3	3	4	6	0	
	2	8	2	2	6	0	
	3	9	2	2	0	3	
89	1	4	2	4	8	0	
	2	10	2	2	0	7	
	3	10	2	1	2	0	
90	1	6	4	1	6	0	
	2	7	3	1	0	8	
	3	8	1	1	2	0	
91	1	3	3	3	0	6	
	2	6	3	3	8	0	
	3	10	2	3	0	5	
92	1	1	4	2	0	5	
	2	4	3	1	0	3	
	3	7	3	1	0	2	
93	1	7	3	1	0	8	
	2	8	2	1	0	8	
	3	9	2	1	2	0	
94	1	2	3	4	0	5	
	2	2	3	3	6	0	
	3	5	3	2	0	2	
95	1	3	3	2	7	0	
	2	4	3	1	5	0	
	3	8	3	1	3	0	
96	1	3	3	5	0	9	
	2	8	3	4	0	5	
	3	10	3	4	4	0	
97	1	3	3	5	4	0	
	2	7	3	4	0	4	
	3	10	1	4	2	0	
98	1	7	5	1	0	8	
	2	9	4	1	4	0	
	3	10	3	1	4	0	
99	1	1	4	2	0	6	
	2	7	2	1	0	4	
	3	9	2	1	0	3	
100	1	2	4	5	8	0	
	2	3	4	4	5	0	
	3	4	4	3	0	2	
101	1	1	3	4	0	2	
	2	4	2	3	0	2	
	3	8	2	2	0	2	
102	1	0	0	0	0	0	
************************************************************************

 RESOURCE AVAILABILITIES 
	R 1	R 2	N 1	N 2
	60	67	168	162

************************************************************************
